26 42 62 89 84 86 79 81 75 34 
13 47 46 54 60 61 20 52 71 82 
67 78 76 10 30 43 59 66 63 12 
95 97 8 32 58 64 21 98 96 
7 57 74 93 6 80 83 50 
48 24 16 92 9 19 18 22 51 31 
73 53 70 45 36 1 69 5 
87 25 28 15 85 99 37 49 29 
72 55 91 44 39 100 94 2 90 
65 41 35 11 77 68 3 14 
33 40 56 88 4 
17 27 38 23 

